data/solutions/recovery/wellformed/intermediate/binding/wellformed_intermediate_instance73/50.sol
Elapsed time: 0.06
Upper bound: 7055.0
Planning weighted value: 376775488.0
C[0]=7055.0
C[1]=6901.0
C[2]=6312.0
C[3]=5963.0
C[4]=5877.0
C[5]=4021.0
C[6]=3735.0
C[7]=3539.0
C[8]=3253.0
C[9]=2452.0
C[10]=1705.0
C[11]=1261.0
C[12]=1158.0
C[13]=760.0
C[14]=570.0
C[15]=0.0
y[0]=7
y[1]=8
y[2]=0
y[3]=6
y[4]=1
y[5]=10
y[6]=1
y[7]=12
y[8]=9
y[9]=6
y[10]=1
y[11]=12
y[12]=4
y[13]=1
y[14]=0
y[15]=1
y[16]=9
y[17]=3
y[18]=4
y[19]=14
y[20]=9
y[21]=1
y[22]=8
y[23]=10
y[24]=11
y[25]=8
y[26]=6
y[27]=12
y[28]=2
y[29]=4
y[30]=0
y[31]=0
y[32]=9
y[33]=0
y[34]=6
y[35]=0
y[36]=0
y[37]=14
y[38]=8
y[39]=2
y[40]=6
y[41]=10
y[42]=1
y[43]=5
y[44]=0
y[45]=0
y[46]=7
y[47]=6
y[48]=9
y[49]=8
y[50]=5
y[51]=14
y[52]=4
y[53]=1
y[54]=10
y[55]=12
y[56]=5
y[57]=7
y[58]=1
y[59]=9
y[60]=1
y[61]=2
y[62]=0
y[63]=13
y[64]=2
y[65]=1
y[66]=5
y[67]=2
y[68]=4
y[69]=1
y[70]=6
y[71]=12
y[72]=3
y[73]=1
y[74]=14
y[75]=4
y[76]=4
y[77]=4
y[78]=2
y[79]=0
y[80]=13
y[81]=2
y[82]=4
y[83]=8
y[84]=5
y[85]=2
y[86]=0
y[87]=8
y[88]=3
y[89]=8
y[90]=3
y[91]=0
y[92]=0
y[93]=1
y[94]=11
y[95]=3
y[96]=3
y[97]=3
y[98]=9
y[99]=11
y[100]=7
y[101]=6
y[102]=3
y[103]=1
y[104]=2
y[105]=4
y[106]=1
y[107]=2
