data/solutions/recovery/wellformed/intermediate/binding/wellformed_intermediate_instance73/50.log

Log started (V12.6.3.0) Fri Apr 20 17:50:31 2018

New value for default parallel thread count: 1

Problem '/tmp/tmpfEGgpz.pyomo.lp' read.
Read time = 0.03 sec. (2.16 ticks)

Problem name         : /tmp/tmpfEGgpz.pyomo.lp
Objective sense      : Minimize
Variables            :    1746  [Nneg: 1,  Binary: 1728,  General Integer: 17]
Objective nonzeros   :       1
Linear constraints   :     250  [Less: 124,  Equal: 126]
  Nonzeros           :  157417
  RHS nonzeros       :     109

Variables            : Min LB: 0.000000         Max UB: 1.000000       
Objective nonzeros   : Min   : 1.000000         Max   : 1.000000       
Linear constraints   :
  Nonzeros           : Min   : 1.000000         Max   : 1715.000       
  RHS nonzeros       : Min   : 1.000000         Max   : 1.000000       
Tried aggregator 2 times.
MIP Presolve eliminated 207 rows and 1535 columns.
Aggregator did 15 substitutions.
Reduced MIP has 28 rows, 196 columns, and 405 nonzeros.
Reduced MIP has 195 binaries, 1 generals, 0 SOSs, and 0 indicators.
Presolve time = 0.01 sec. (9.81 ticks)
Found incumbent of value 17548.000000 after 0.01 sec. (13.58 ticks)
Probing time = 0.00 sec. (0.24 ticks)
Tried aggregator 1 time.
Reduced MIP has 28 rows, 196 columns, and 405 nonzeros.
Reduced MIP has 195 binaries, 1 generals, 0 SOSs, and 0 indicators.
Presolve time = 0.00 sec. (0.33 ticks)
Probing time = 0.00 sec. (0.24 ticks)
Clique table members: 13.
MIP emphasis: balance optimality and feasibility.
MIP search method: dynamic search.
Parallel mode: none, using 1 thread.
Root relaxation solution time = 0.00 sec. (0.16 ticks)

        Nodes                                         Cuts/
   Node  Left     Objective  IInf  Best Integer    Best Bound    ItCnt     Gap

*     0+    0                        17548.0000     7055.0000            59.80%
      0     0     7055.0000     6    17548.0000     7055.0000       21   59.80%
*     0+    0                         7055.0000     7055.0000             0.00%
      0     0        cutoff           7055.0000     7055.0000       21    0.00%
Elapsed time = 0.01 sec. (14.89 ticks, tree = 0.01 MB, solutions = 2)

Root node processing (before b&c):
  Real time             =    0.01 sec. (14.95 ticks)
Sequential b&c:
  Real time             =    0.00 sec. (0.00 ticks)
                          ------------
Total (root+branch&cut) =    0.01 sec. (14.95 ticks)

Solution pool: 2 solutions saved.

MIP - Integer optimal solution:  Objective =  7.0550000000e+03
Solution time =    0.01 sec.  Iterations = 21  Nodes = 0
Deterministic time = 14.96 ticks  (1104.31 ticks/sec)


Incumbent solution written to file '/tmp/tmpfvTSKE.cplex.sol'.

Log started (V12.6.3.0) Fri Apr 20 17:53:33 2018

New value for default parallel thread count: 1

Problem '/tmp/tmpfPApYb.pyomo.lp' read.
Read time = 0.03 sec. (2.16 ticks)

Problem name         : /tmp/tmpfPApYb.pyomo.lp
Objective sense      : Minimize
Variables            :    1746  [Nneg: 1,  Binary: 1728,  General Integer: 17]
Objective nonzeros   :       1
Linear constraints   :     250  [Less: 124,  Equal: 126]
  Nonzeros           :  157417
  RHS nonzeros       :     109

Variables            : Min LB: 0.000000         Max UB: 1.000000       
Objective nonzeros   : Min   : 1.000000         Max   : 1.000000       
Linear constraints   :
  Nonzeros           : Min   : 1.000000         Max   : 1715.000       
  RHS nonzeros       : Min   : 1.000000         Max   : 1.000000       
Tried aggregator 2 times.
MIP Presolve eliminated 207 rows and 1535 columns.
Aggregator did 15 substitutions.
Reduced MIP has 28 rows, 196 columns, and 405 nonzeros.
Reduced MIP has 195 binaries, 1 generals, 0 SOSs, and 0 indicators.
Presolve time = 0.01 sec. (9.81 ticks)
Found incumbent of value 17548.000000 after 0.01 sec. (13.58 ticks)
Probing time = 0.00 sec. (0.24 ticks)
Tried aggregator 1 time.
Reduced MIP has 28 rows, 196 columns, and 405 nonzeros.
Reduced MIP has 195 binaries, 1 generals, 0 SOSs, and 0 indicators.
Presolve time = 0.00 sec. (0.33 ticks)
Probing time = 0.00 sec. (0.24 ticks)
Clique table members: 13.
MIP emphasis: balance optimality and feasibility.
MIP search method: dynamic search.
Parallel mode: none, using 1 thread.
Root relaxation solution time = 0.00 sec. (0.16 ticks)

        Nodes                                         Cuts/
   Node  Left     Objective  IInf  Best Integer    Best Bound    ItCnt     Gap

*     0+    0                        17548.0000     7055.0000            59.80%
      0     0     7055.0000     6    17548.0000     7055.0000       21   59.80%
*     0+    0                         7055.0000     7055.0000             0.00%
      0     0        cutoff           7055.0000     7055.0000       21    0.00%
Elapsed time = 0.01 sec. (14.89 ticks, tree = 0.01 MB, solutions = 2)

Root node processing (before b&c):
  Real time             =    0.01 sec. (14.95 ticks)
Sequential b&c:
  Real time             =    0.00 sec. (0.00 ticks)
                          ------------
Total (root+branch&cut) =    0.01 sec. (14.95 ticks)

Solution pool: 2 solutions saved.

MIP - Integer optimal solution:  Objective =  7.0550000000e+03
Solution time =    0.01 sec.  Iterations = 21  Nodes = 0
Deterministic time = 14.96 ticks  (1075.88 ticks/sec)


Incumbent solution written to file '/tmp/tmpPELwXX.cplex.sol'.
